<?xml version = "1.0" encoding="UTF-8" standalone="yes"?>
<CPLEXSolution version="1.2">
 <header
   problemName="1_rho__E_7_2_2"
   solutionName="incumbent"
   solutionIndex="-1"
   objectiveValue="8"
   solutionTypeValue="3"
   solutionTypeString="primal"
   solutionStatusValue="101"
   solutionStatusString="integer optimal solution"
   solutionMethodString="mip"
   primalFeasible="1"
   dualFeasible="1"
   MIPNodes="0"
   MIPIterations="40"
   writeLevel="1"/>
 <quality
   epInt="1.0000000000000001e-05"
   epRHS="9.9999999999999995e-07"
   maxIntInfeas="0"
   maxPrimalInfeas="0"
   maxX="8"
   maxSlack="1"/>
 <linearConstraints>
  <constraint name="R_def" index="0" slack="0"/>
  <constraint name="val_cible" index="1" slack="0"/>
  <constraint name="BkI_96_0" index="2" slack="0"/>
  <constraint name="BkI_96_1" index="3" slack="0"/>
  <constraint name="BkI_80_0" index="4" slack="0"/>
  <constraint name="BkI_80_1" index="5" slack="0"/>
  <constraint name="BkI_48_0" index="6" slack="0"/>
  <constraint name="BkI_48_1" index="7" slack="0"/>
  <constraint name="BkI_72_0" index="8" slack="0"/>
  <constraint name="BkI_72_1" index="9" slack="0"/>
  <constraint name="BkI_40_0" index="10" slack="0"/>
  <constraint name="BkI_40_1" index="11" slack="0"/>
  <constraint name="BkI_24_0" index="12" slack="0"/>
  <constraint name="BkI_24_1" index="13" slack="0"/>
  <constraint name="BkI_68_0" index="14" slack="0"/>
  <constraint name="BkI_68_1" index="15" slack="0"/>
  <constraint name="BkI_36_0" index="16" slack="0"/>
  <constraint name="BkI_36_1" index="17" slack="0"/>
  <constraint name="BkI_20_0" index="18" slack="0"/>
  <constraint name="BkI_20_1" index="19" slack="0"/>
  <constraint name="BkI_12_0" index="20" slack="0"/>
  <constraint name="BkI_12_1" index="21" slack="0"/>
  <constraint name="BkI_66_0" index="22" slack="0"/>
  <constraint name="BkI_66_1" index="23" slack="0"/>
  <constraint name="BkI_34_0" index="24" slack="0"/>
  <constraint name="BkI_34_1" index="25" slack="0"/>
  <constraint name="BkI_18_0" index="26" slack="0"/>
  <constraint name="BkI_18_1" index="27" slack="0"/>
  <constraint name="BkI_10_0" index="28" slack="0"/>
  <constraint name="BkI_10_1" index="29" slack="0"/>
  <constraint name="BkI_6_0" index="30" slack="0"/>
  <constraint name="BkI_6_1" index="31" slack="0"/>
  <constraint name="BkI_65_0" index="32" slack="0"/>
  <constraint name="BkI_65_1" index="33" slack="0"/>
  <constraint name="BkI_33_0" index="34" slack="0"/>
  <constraint name="BkI_33_1" index="35" slack="0"/>
  <constraint name="BkI_17_0" index="36" slack="0"/>
  <constraint name="BkI_17_1" index="37" slack="0"/>
  <constraint name="BkI_9_0" index="38" slack="0"/>
  <constraint name="BkI_9_1" index="39" slack="0"/>
  <constraint name="BkI_5_0" index="40" slack="0"/>
  <constraint name="BkI_5_1" index="41" slack="0"/>
  <constraint name="BkI_3_0" index="42" slack="0"/>
  <constraint name="BkI_3_1" index="43" slack="0"/>
  <constraint name="QstargeqQ1" index="44" slack="-1"/>
  <constraint name="QstargeqQ2" index="45" slack="-1"/>
  <constraint name="QstargeqQ3" index="46" slack="-1"/>
  <constraint name="QstargeqQ4" index="47" slack="-1"/>
  <constraint name="QstargeqQ5" index="48" slack="-1"/>
  <constraint name="QstargeqQ6" index="49" slack="-1"/>
  <constraint name="QstargeqQ7" index="50" slack="-1"/>
  <constraint name="QstargeqQ8" index="51" slack="-1"/>
  <constraint name="QstargeqQ9" index="52" slack="-1"/>
  <constraint name="QstargeqQ10" index="53" slack="-1"/>
  <constraint name="QstargeqQ11" index="54" slack="-1"/>
  <constraint name="QstargeqQ12" index="55" slack="-1"/>
  <constraint name="QstargeqQ13" index="56" slack="0"/>
  <constraint name="QstargeqQ14" index="57" slack="-1"/>
  <constraint name="QstargeqQ15" index="58" slack="-1"/>
  <constraint name="QstargeqQ16" index="59" slack="-1"/>
  <constraint name="QstargeqQ17" index="60" slack="-1"/>
  <constraint name="QstargeqQ18" index="61" slack="-1"/>
  <constraint name="QstargeqQ19" index="62" slack="0"/>
  <constraint name="QstargeqQ20" index="63" slack="-1"/>
  <constraint name="QstargeqQ21" index="64" slack="-1"/>
  <constraint name="QstargeqQ22" index="65" slack="-1"/>
  <constraint name="QstargeqQ23" index="66" slack="-1"/>
  <constraint name="QstargeqQ24" index="67" slack="-1"/>
  <constraint name="QstargeqQ25" index="68" slack="-1"/>
  <constraint name="QstargeqQ26" index="69" slack="-1"/>
  <constraint name="QstargeqQ27" index="70" slack="-1"/>
  <constraint name="QstargeqQ28" index="71" slack="-1"/>
  <constraint name="QstargeqQ29" index="72" slack="-1"/>
  <constraint name="QstargeqQ30" index="73" slack="0"/>
  <constraint name="QstargeqQ31" index="74" slack="-1"/>
  <constraint name="QstargeqQ32" index="75" slack="-1"/>
  <constraint name="QstargeqQ33" index="76" slack="-1"/>
  <constraint name="QstargeqQ34" index="77" slack="-1"/>
  <constraint name="QstargeqQ35" index="78" slack="-1"/>
  <constraint name="QstargeqQ36" index="79" slack="-1"/>
  <constraint name="QstargeqQ37" index="80" slack="-1"/>
  <constraint name="QstargeqQ38" index="81" slack="-1"/>
  <constraint name="QstargeqQ39" index="82" slack="0"/>
  <constraint name="QstargeqQ40" index="83" slack="-1"/>
  <constraint name="QstargeqQ41" index="84" slack="-1"/>
  <constraint name="QstargeqQ42" index="85" slack="0"/>
  <constraint name="QstargeqQ43" index="86" slack="-1"/>
  <constraint name="QstargeqQ44" index="87" slack="-1"/>
  <constraint name="QstargeqQ45" index="88" slack="-1"/>
  <constraint name="QstargeqQ46" index="89" slack="-1"/>
  <constraint name="QstargeqQ47" index="90" slack="-1"/>
  <constraint name="QstargeqQ48" index="91" slack="-1"/>
  <constraint name="QstargeqQ49" index="92" slack="-1"/>
  <constraint name="QstargeqQ50" index="93" slack="-1"/>
  <constraint name="QstargeqQ51" index="94" slack="-1"/>
  <constraint name="QstargeqQ52" index="95" slack="0"/>
  <constraint name="QstargeqQ53" index="96" slack="-1"/>
  <constraint name="QstargeqQ54" index="97" slack="-1"/>
  <constraint name="QstargeqQ55" index="98" slack="-1"/>
  <constraint name="QstargeqQ56" index="99" slack="-1"/>
  <constraint name="QstargeqQ57" index="100" slack="0"/>
  <constraint name="QstargeqQ58" index="101" slack="-1"/>
  <constraint name="QstargeqQ59" index="102" slack="-1"/>
  <constraint name="QstargeqQ60" index="103" slack="-1"/>
  <constraint name="QstargeqQ61" index="104" slack="-1"/>
  <constraint name="QstargeqQ62" index="105" slack="-1"/>
  <constraint name="QstargeqQ63" index="106" slack="-1"/>
 </linearConstraints>
 <variables>
  <variable name="R" index="0" value="8"/>
  <variable name="Q0000000" index="1" value="1"/>
  <variable name="Q0000001" index="2" value="0"/>
  <variable name="Q0000010" index="3" value="0"/>
  <variable name="Q0000011" index="4" value="0"/>
  <variable name="Q0000100" index="5" value="0"/>
  <variable name="Q0000101" index="6" value="0"/>
  <variable name="Q0000110" index="7" value="0"/>
  <variable name="Q0000111" index="8" value="0"/>
  <variable name="Q0001000" index="9" value="0"/>
  <variable name="Q0001001" index="10" value="0"/>
  <variable name="Q0001010" index="11" value="0"/>
  <variable name="Q0001011" index="12" value="0"/>
  <variable name="Q0001100" index="13" value="0"/>
  <variable name="Q0001101" index="14" value="1"/>
  <variable name="Q0001110" index="15" value="0"/>
  <variable name="Q0001111" index="16" value="0"/>
  <variable name="Q0010000" index="17" value="0"/>
  <variable name="Q0010001" index="18" value="0"/>
  <variable name="Q0010010" index="19" value="0"/>
  <variable name="Q0010011" index="20" value="1"/>
  <variable name="Q0010100" index="21" value="0"/>
  <variable name="Q0010101" index="22" value="0"/>
  <variable name="Q0010110" index="23" value="0"/>
  <variable name="Q0010111" index="24" value="0"/>
  <variable name="Q0011000" index="25" value="0"/>
  <variable name="Q0011001" index="26" value="0"/>
  <variable name="Q0011010" index="27" value="0"/>
  <variable name="Q0011011" index="28" value="0"/>
  <variable name="Q0011100" index="29" value="0"/>
  <variable name="Q0011101" index="30" value="0"/>
  <variable name="Q0011110" index="31" value="1"/>
  <variable name="Q0011111" index="32" value="0"/>
  <variable name="Q0100000" index="33" value="0"/>
  <variable name="Q0100001" index="34" value="0"/>
  <variable name="Q0100010" index="35" value="0"/>
  <variable name="Q0100011" index="36" value="0"/>
  <variable name="Q0100100" index="37" value="0"/>
  <variable name="Q0100101" index="38" value="0"/>
  <variable name="Q0100110" index="39" value="0"/>
  <variable name="Q0100111" index="40" value="1"/>
  <variable name="Q0101000" index="41" value="0"/>
  <variable name="Q0101001" index="42" value="0"/>
  <variable name="Q0101010" index="43" value="1"/>
  <variable name="Q0101011" index="44" value="0"/>
  <variable name="Q0101100" index="45" value="0"/>
  <variable name="Q0101101" index="46" value="0"/>
  <variable name="Q0101110" index="47" value="0"/>
  <variable name="Q0101111" index="48" value="0"/>
  <variable name="Q0110000" index="49" value="0"/>
  <variable name="Q0110001" index="50" value="0"/>
  <variable name="Q0110010" index="51" value="0"/>
  <variable name="Q0110011" index="52" value="0"/>
  <variable name="Q0110100" index="53" value="1"/>
  <variable name="Q0110101" index="54" value="0"/>
  <variable name="Q0110110" index="55" value="0"/>
  <variable name="Q0110111" index="56" value="0"/>
  <variable name="Q0111000" index="57" value="0"/>
  <variable name="Q0111001" index="58" value="1"/>
  <variable name="Q0111010" index="59" value="0"/>
  <variable name="Q0111011" index="60" value="0"/>
  <variable name="Q0111100" index="61" value="0"/>
  <variable name="Q0111101" index="62" value="0"/>
  <variable name="Q0111110" index="63" value="0"/>
  <variable name="Q0111111" index="64" value="0"/>
 </variables>
 <objectiveValues>
  <objective index="0" name="" value="8"/>
 </objectiveValues>
</CPLEXSolution>
